A FAKE SYSTEM
    1.000000000000000     
    19.5000000000000000    0.0000000000000000    0.0000000000000000
     9.7500000000000000   16.8874953738000002    0.0000000000000000
     0.0000000000000000    0.0000000000000000   30.0000000000000000
   La   O    N    C    H    Mo   S
     1     3     4    30    33    36    72
Selective dynamics
Direct
  0.5090849997340946  0.5230300655349098  0.4271043386065346   T   T   T
  0.4131383253841516  0.5042370196132594  0.4503045126933930   T   T   T
  0.5440756932480567  0.4284706106793359  0.3768972686275189   T   T   T
  0.5867206687808579  0.4382221638886352  0.4765520589502655   T   T   T
  0.3922591388451661  0.6098688443523878  0.3819440059882311   T   T   T
  0.6308695245826095  0.5061114296929931  0.3906808152544554   T   T   T
  0.5007154709380145  0.6653058611105616  0.4074033615771677   T   T   T
  0.4982741813824915  0.6008488502314866  0.4940072298143542   T   T   T
  0.3290110808240120  0.6047835032308221  0.3749445045883453   T   T   T
  0.6878792929222621  0.4388362992139173  0.3762335206829310   T   T   T
  0.5200975974260560  0.5754371555415003  0.5345950143686897   T   T   T
  0.3067968907225331  0.5537921262265845  0.3971965158958906   T   T   T
  0.6859129914521200  0.3661643063692713  0.3720584712831029   T   T   T
  0.5633201017669283  0.4948954363834441  0.5496690202803374   T   T   T
  0.3507008602756250  0.5049540491862482  0.4344163704532051   T   T   T
  0.6129968060076183  0.3643535304461601  0.3730999913863016   T   T   T
  0.5960574294086645  0.4286932006143458  0.5195060368584395   T   T   T
  0.3235894301419381  0.4562894193889522  0.4548352241666420   T   T   T
  0.6169399720059502  0.2890580186619028  0.3697196634745069   T   T   T
  0.6407630630930560  0.3504096449262212  0.5374630274091682   T   T   T
  0.2567967952531846  0.4572168523122634  0.4380218511733868   T   T   T
  0.6903566924691994  0.2204984084592660  0.3665470181330086   T   T   T
  0.6506317794827443  0.3406802141402414  0.5833135480039349   T   T   T
  0.7616731240973021  0.2223740600157479  0.3654183663501304   T   T   T
  0.7588314741860183  0.2946864147046738  0.3674329632602357   T   T   T
  0.3696601113683665  0.4058910358998710  0.4937427780484178   T   T   T
  0.5406201429607543  0.2880372279240963  0.3725540853368428   T   T   T
  0.6741800151192147  0.2820270579069088  0.5054860004684677   T   T   T
  0.2381864298095954  0.5534086425908433  0.3819948242309645   T   T   T
  0.5761435156230453  0.4813742077029842  0.5961221041345071   T   T   T
  0.2134520876956897  0.5054247878014488  0.4016851166935025   T   T   T
  0.6188213887842666  0.4054361585429143  0.6130014041354881   T   T   T
  0.4021814816651992  0.6660675984752025  0.3549216461990072   T   T   T
  0.6441792605910370  0.5732830345414376  0.3924626502871643   T   T   T
  0.5688957807429800  0.6485881368622821  0.3785142586089880   T   T   T
  0.4249941743803435  0.7156231864187464  0.3838387165204329   T   T   T
  0.5029120530734132  0.7028394606108357  0.4498603655346056   T   T   T
  0.4591634748282893  0.6860572103614641  0.4866870205844306   T   T   T
  0.2371235128848936  0.4194218086223433  0.4537274452200676   T   T   T
  0.6926029308238759  0.1633960505633833  0.3649747743144973   T   T   T
  0.6843690921764741  0.2806535547890890  0.5967297155786717   T   T   T
  0.8182338663809524  0.1675018873088543  0.3626463875629286   T   T   T
  0.8134945123774137  0.2973272160027770  0.3663323104907097   T   T   T
  0.3435031740499762  0.3713694525611882  0.5065500956696548   T   T   T
  0.5500509756910714  0.2281786518770111  0.3674863925390137   T   T   T
  0.7082423888641063  0.2253870121609094  0.5230289282827313   T   T   T
  0.4317001477289442  0.3650463281795084  0.4844482817777785   T   T   T
  0.5122651588680961  0.3101884595161685  0.4052084201895237   T   T   T
  0.6266925072837601  0.2807998815988130  0.4862788668600854   T   T   T
  0.3721587032508194  0.4424955707912751  0.5209078118948033   T   T   T
  0.4975609476091659  0.3281762591952078  0.3478253854192625   T   T   T
  0.7125913874127002  0.2875203098849929  0.4805758819506841   T   T   T
  0.2868537919458520  0.6433866151400699  0.3491309183228251   T   T   T
  0.7445118114620948  0.4347355695032722  0.3664869541133724   T   T   T
  0.5048740659506036  0.6199984920062174  0.5612091095887166   T   T   T
  0.2052500444921945  0.5916430151698765  0.3540219174816978   T   T   T
  0.5512510317618610  0.5323804196979851  0.6185442302968389   T   T   T
  0.1610273562290782  0.5049316274058360  0.3895147235070144   T   T   T
  0.6280342924424368  0.3954806487214081  0.6487815346073175   T   T   T
  0.4497829246931049  0.6327506896147348  0.3304151436500791   T   T   T
  0.3483171642600171  0.7054386140271834  0.3356325850318861   T   T   T
  0.6936105374432109  0.5648860299994084  0.3707532085962558   T   T   T
  0.6602660551465130  0.5794050951296547  0.4269371777694395   T   T   T
  0.5791703200552508  0.6995495912958124  0.3778569735118831   T   T   T
  0.5542923731428110  0.6403083902660710  0.3442826624137293   T   T   T
  0.4283018437867763  0.7612092332151993  0.3634247126945872   T   T   T
  0.3783173737854666  0.7468115434041789  0.4088268854088878   T   T   T
  0.4781486297978528  0.7673721142643349  0.4454461736554872   T   T   T
  0.5650063637845203  0.6777017095621679  0.4600895074631965   T   T   T
  0.3972464482082620  0.7076805983528366  0.4765467963283279   T   T   T
  0.4574085554952000  0.7187084667760109  0.5171887537252905   T   T   T
  0.0159823174652658  0.0183401623002339  0.1975708537666634   F   F   F
  0.0158403458495625  0.1852983171444154  0.1981046496293368   T   T   T
  0.0159888645827161  0.3519223835874543  0.1986793679540155   T   T   T
  0.0160801339177514  0.5184896718648800  0.1988656510232229   T   T   T
  0.0161302244170274  0.6850353370039755  0.1985791440113463   T   T   T
  0.0160995796810170  0.8516903530479932  0.1980655457792805   T   T   T
  0.1826320114894559  0.0186352178148498  0.1978329237221862   T   T   T
  0.1826473147741093  0.1853287675060823  0.1984483078774170   T   T   T
  0.1827493882390052  0.3519371980226281  0.1987719116293359   T   T   T
  0.1827178207083842  0.5184127242394501  0.1984942147485735   T   T   T
  0.1827718830041950  0.6850253279009927  0.1979348335836194   T   T   T
  0.1827506143179164  0.8518240441349713  0.1976111813952264   T   T   T
  0.3493842485294710  0.0187111184680809  0.1981492516322134   T   T   T
  0.3494021862767225  0.1853431384046550  0.1985625555479419   T   T   T
  0.3494009613384254  0.3519292371950890  0.1984694576175535   T   T   T
  0.3493740682661528  0.5182535480806759  0.1977364094548348   T   T   T
  0.3495307251158018  0.6850048549477725  0.1975355222693838   T   T   T
  0.3492998346887454  0.8522697011580128  0.1973087224037501   T   T   T
  0.5160804987083539  0.0186254501079717  0.1984181843288312   T   T   T
  0.5160486007424824  0.1853084114510882  0.1982155012112013   T   T   T
  0.5160421071179906  0.3519204459424611  0.1979098582431744   T   T   T
  0.5160908163586133  0.5182430072676966  0.1974921856008029   T   T   T
  0.5163966980251201  0.6850548109525990  0.1975213559289043   T   T   T
  0.5161405562001216  0.8519027881070329  0.1980911583424826   T   T   T
  0.6827457240474570  0.0185757600012377  0.1982947362504973   T   T   T
  0.6826483023810851  0.1852800101368034  0.1976149965036988   T   T   T
  0.6824508468946624  0.3521080088182402  0.1974592821009458   T   T   T
  0.6828764888027578  0.5184449657766387  0.1979188290693850   T   T   T
  0.6828582221357928  0.6851355395842598  0.1983933726336340   T   T   T
  0.6827959756899885  0.8518531342349175  0.1985292233938608   T   T   T
  0.8492935002460860  0.0185173901195890  0.1979854001684906   T   T   T
  0.8490696877576902  0.1854033601133934  0.1977145717567279   T   T   T
  0.8492686698316678  0.3519357398252809  0.1981509108902754   T   T   T
  0.8494023543394799  0.5185212516701985  0.1986718610325787   T   T   T
  0.8494613041130648  0.6851162576587835  0.1987449748356383   T   T   T
  0.8494382125153608  0.8517780621692846  0.1984659448755522   T   T   T
  0.0714282303659625  0.0744251273831102  0.1469863523044112   T   T   T
  0.0715525145053499  0.2411610498563330  0.1475735249172128   T   T   T
  0.0716154473965112  0.4075263423762753  0.1479357313247107   T   T   T
  0.0714493309418000  0.5738702018308059  0.1477881580339060   T   T   T
  0.0713698036585858  0.7403949174923444  0.1473310208767778   T   T   T
  0.0714471837625446  0.9070942209050742  0.1468586247007677   T   T   T
  0.2382269224224742  0.0746096084129900  0.1472851534812996   T   T   T
  0.2382061749600340  0.2410639305199865  0.1477532897654447   T   T   T
  0.2381383800640055  0.4073166554329603  0.1477149543458418   T   T   T
  0.2378857913898842  0.5737799102965112  0.1471454839454326   T   T   T
  0.2381732917032934  0.7405147324079486  0.1468412307169769   T   T   T
  0.2379371857572880  0.9078117711798097  0.1466851341494209   T   T   T
  0.4049772561045810  0.0744715301016128  0.1475202816773303   T   T   T
  0.4047010576554481  0.2408916202788892  0.1475618826727116   T   T   T
  0.4047572508173369  0.4070046821445268  0.1471284225268715   T   T   T
  0.4048278056461009  0.5737921521259433  0.1466735424370976   T   T   T
  0.4051593158273258  0.7406987679262133  0.1465802037307945   T   T   T
  0.4052663100656239  0.9079657968662843  0.1469524743458542   T   T   T
  0.5715922566309793  0.0740546204148201  0.1474624733501000   T   T   T
  0.5712526818061361  0.2407686437931921  0.1469997787905483   T   T   T
  0.5713639297466162  0.4072590660390056  0.1466545109552344   T   T   T
  0.5720412938213646  0.5737897144811460  0.1467834333687696   T   T   T
  0.5722407149555150  0.7408266012087886  0.1471336998907469   T   T   T
  0.5719019619987091  0.9075532812052045  0.1474973662875148   T   T   T
  0.7382519085648317  0.0737099591039391  0.1470816863209789   T   T   T
  0.7381466753128062  0.2408299997594649  0.1466183610005916   T   T   T
  0.7386221654134680  0.4075735656593799  0.1469335103650075   T   T   T
  0.7388016192380303  0.5741273185411143  0.1474697623502852   T   T   T
  0.7386114088771081  0.7406763777939148  0.1477097130908153   T   T   T
  0.7383753797710272  0.9072360354543938  0.1475806163071126   T   T   T
  0.9046313338097811  0.0740523851487439  0.1469046274195384   T   T   T
  0.9049000470080825  0.2410621011758477  0.1471212976246172   T   T   T
  0.9051246105878871  0.4076662189836307  0.1476577040207545   T   T   T
  0.9051224000007313  0.5739926657154627  0.1479157232249135   T   T   T
  0.9049867349693436  0.7404717470320642  0.1477478386982953   T   T   T
  0.9048143716738105  0.9071060032511973  0.1473111512758377   T   T   T
  0.0714335697429040  0.0737915488280971  0.2545079127732317   T   T   T
  0.0714138075297406  0.2404277526517566  0.2551463740993022   T   T   T
  0.0716518243045591  0.4072750507644411  0.2555436656859970   T   T   T
  0.0719300451981181  0.5740608720862104  0.2554697092179097   T   T   T
  0.0720340000744605  0.7407405590068694  0.2549624702185969   T   T   T
  0.0717874119020686  0.9074746398055745  0.2544600378044098   T   T   T
  0.2381842974449911  0.0738120673297716  0.2548500541632482   T   T   T
  0.2383521522589364  0.2406200751797706  0.2553539359286389   T   T   T
  0.2385786360629713  0.4075231027936955  0.2554454847497482   T   T   T
  0.2387936123830407  0.5740204651403525  0.2546565240665689   T   T   T
  0.2385562594698963  0.7407395512603846  0.2543468556704684   T   T   T
  0.2384744293767072  0.9072241411755360  0.2543000653495097   T   T   T
  0.4049102138942521  0.0740190491251322  0.2551173643579645   T   T   T
  0.4052915840242068  0.2408821992140861  0.2552295526611538   T   T   T
  0.4052873711199058  0.4076469513744713  0.2549432365671606   T   T   T
  0.4051319587159431  0.5734819449903609  0.2540732360585807   T   T   T
  0.4050204405350949  0.7414442141909923  0.2535644538782088   T   T   T
  0.4047110380639989  0.9072621180748182  0.2545782121054814   T   T   T
  0.5716886938758827  0.0743829587649650  0.2550736699267182   T   T   T
  0.5721082159415436  0.2408639986929215  0.2545946011515705   T   T   T
  0.5717708210266812  0.4074493417725329  0.2545787605884540   T   T   T
  0.5714058500531424  0.5737384336255739  0.2542404605922975   T   T   T
  0.5712853604568724  0.7406269675426477  0.2547418666923973   T   T   T
  0.5714190876489104  0.9074228927027258  0.2550759864279127   T   T   T
  0.7382173248865552  0.0746973781692765  0.2547655375538068   T   T   T
  0.7376065224868141  0.2413729832997710  0.2540960507913969   T   T   T
  0.7377563425427325  0.4072919223861165  0.2545822321075985   T   T   T
  0.7378544525118855  0.5738888894426254  0.2551311129714189   T   T   T
  0.7380927404560403  0.7407681286089512  0.2553080067214895   T   T   T
  0.7382701430876024  0.9076971614501799  0.2551694563044367   T   T   T
  0.9048194981348560  0.0743374977069049  0.2544899143862536   T   T   T
  0.9044313001902539  0.2406462226363567  0.2547936219812368   T   T   T
  0.9045707283241733  0.4071863828451519  0.2552727256263291   T   T   T
  0.9048475181213597  0.5740302902316066  0.2555260190670792   T   T   T
  0.9050529853662709  0.7408650072870988  0.2553470684536225   T   T   T
  0.9050662440091110  0.9076813911040658  0.2548921983237217   T   T   T
 
  0.00000000E+00  0.00000000E+00  0.00000000E+00
  0.00000000E+00  0.00000000E+00  0.00000000E+00
  0.00000000E+00  0.00000000E+00  0.00000000E+00
  0.00000000E+00  0.00000000E+00  0.00000000E+00
  0.00000000E+00  0.00000000E+00  0.00000000E+00
  0.00000000E+00  0.00000000E+00  0.00000000E+00
  0.00000000E+00  0.00000000E+00  0.00000000E+00
  0.00000000E+00  0.00000000E+00  0.00000000E+00
  0.00000000E+00  0.00000000E+00  0.00000000E+00
  0.00000000E+00  0.00000000E+00  0.00000000E+00
  0.00000000E+00  0.00000000E+00  0.00000000E+00
  0.00000000E+00  0.00000000E+00  0.00000000E+00
  0.00000000E+00  0.00000000E+00  0.00000000E+00
  0.00000000E+00  0.00000000E+00  0.00000000E+00
  0.00000000E+00  0.00000000E+00  0.00000000E+00
  0.00000000E+00  0.00000000E+00  0.00000000E+00
  0.00000000E+00  0.00000000E+00  0.00000000E+00
  0.00000000E+00  0.00000000E+00  0.00000000E+00
  0.00000000E+00  0.00000000E+00  0.00000000E+00
  0.00000000E+00  0.00000000E+00  0.00000000E+00
  0.00000000E+00  0.00000000E+00  0.00000000E+00
  0.00000000E+00  0.00000000E+00  0.00000000E+00
  0.00000000E+00  0.00000000E+00  0.00000000E+00
  0.00000000E+00  0.00000000E+00  0.00000000E+00
  0.00000000E+00  0.00000000E+00  0.00000000E+00
  0.00000000E+00  0.00000000E+00  0.00000000E+00
  0.00000000E+00  0.00000000E+00  0.00000000E+00
  0.00000000E+00  0.00000000E+00  0.00000000E+00
  0.00000000E+00  0.00000000E+00  0.00000000E+00
  0.00000000E+00  0.00000000E+00  0.00000000E+00
  0.00000000E+00  0.00000000E+00  0.00000000E+00
  0.00000000E+00  0.00000000E+00  0.00000000E+00
  0.00000000E+00  0.00000000E+00  0.00000000E+00
  0.00000000E+00  0.00000000E+00  0.00000000E+00
  0.00000000E+00  0.00000000E+00  0.00000000E+00
  0.00000000E+00  0.00000000E+00  0.00000000E+00
  0.00000000E+00  0.00000000E+00  0.00000000E+00
  0.00000000E+00  0.00000000E+00  0.00000000E+00
  0.00000000E+00  0.00000000E+00  0.00000000E+00
  0.00000000E+00  0.00000000E+00  0.00000000E+00
  0.00000000E+00  0.00000000E+00  0.00000000E+00
  0.00000000E+00  0.00000000E+00  0.00000000E+00
  0.00000000E+00  0.00000000E+00  0.00000000E+00
  0.00000000E+00  0.00000000E+00  0.00000000E+00
  0.00000000E+00  0.00000000E+00  0.00000000E+00
  0.00000000E+00  0.00000000E+00  0.00000000E+00
  0.00000000E+00  0.00000000E+00  0.00000000E+00
  0.00000000E+00  0.00000000E+00  0.00000000E+00
  0.00000000E+00  0.00000000E+00  0.00000000E+00
  0.00000000E+00  0.00000000E+00  0.00000000E+00
  0.00000000E+00  0.00000000E+00  0.00000000E+00
  0.00000000E+00  0.00000000E+00  0.00000000E+00
  0.00000000E+00  0.00000000E+00  0.00000000E+00
  0.00000000E+00  0.00000000E+00  0.00000000E+00
  0.00000000E+00  0.00000000E+00  0.00000000E+00
  0.00000000E+00  0.00000000E+00  0.00000000E+00
  0.00000000E+00  0.00000000E+00  0.00000000E+00
  0.00000000E+00  0.00000000E+00  0.00000000E+00
  0.00000000E+00  0.00000000E+00  0.00000000E+00
  0.00000000E+00  0.00000000E+00  0.00000000E+00
  0.00000000E+00  0.00000000E+00  0.00000000E+00
  0.00000000E+00  0.00000000E+00  0.00000000E+00
  0.00000000E+00  0.00000000E+00  0.00000000E+00
  0.00000000E+00  0.00000000E+00  0.00000000E+00
  0.00000000E+00  0.00000000E+00  0.00000000E+00
  0.00000000E+00  0.00000000E+00  0.00000000E+00
  0.00000000E+00  0.00000000E+00  0.00000000E+00
  0.00000000E+00  0.00000000E+00  0.00000000E+00
  0.00000000E+00  0.00000000E+00  0.00000000E+00
  0.00000000E+00  0.00000000E+00  0.00000000E+00
  0.00000000E+00  0.00000000E+00  0.00000000E+00
  0.00000000E+00  0.00000000E+00  0.00000000E+00
  0.00000000E+00  0.00000000E+00  0.00000000E+00
  0.00000000E+00  0.00000000E+00  0.00000000E+00
  0.00000000E+00  0.00000000E+00  0.00000000E+00
  0.00000000E+00  0.00000000E+00  0.00000000E+00
  0.00000000E+00  0.00000000E+00  0.00000000E+00
  0.00000000E+00  0.00000000E+00  0.00000000E+00
  0.00000000E+00  0.00000000E+00  0.00000000E+00
  0.00000000E+00  0.00000000E+00  0.00000000E+00
  0.00000000E+00  0.00000000E+00  0.00000000E+00
  0.00000000E+00  0.00000000E+00  0.00000000E+00
  0.00000000E+00  0.00000000E+00  0.00000000E+00
  0.00000000E+00  0.00000000E+00  0.00000000E+00
  0.00000000E+00  0.00000000E+00  0.00000000E+00
  0.00000000E+00  0.00000000E+00  0.00000000E+00
  0.00000000E+00  0.00000000E+00  0.00000000E+00
  0.00000000E+00  0.00000000E+00  0.00000000E+00
  0.00000000E+00  0.00000000E+00  0.00000000E+00
  0.00000000E+00  0.00000000E+00  0.00000000E+00
  0.00000000E+00  0.00000000E+00  0.00000000E+00
  0.00000000E+00  0.00000000E+00  0.00000000E+00
  0.00000000E+00  0.00000000E+00  0.00000000E+00
  0.00000000E+00  0.00000000E+00  0.00000000E+00
  0.00000000E+00  0.00000000E+00  0.00000000E+00
  0.00000000E+00  0.00000000E+00  0.00000000E+00
  0.00000000E+00  0.00000000E+00  0.00000000E+00
  0.00000000E+00  0.00000000E+00  0.00000000E+00
  0.00000000E+00  0.00000000E+00  0.00000000E+00
  0.00000000E+00  0.00000000E+00  0.00000000E+00
  0.00000000E+00  0.00000000E+00  0.00000000E+00
  0.00000000E+00  0.00000000E+00  0.00000000E+00
  0.00000000E+00  0.00000000E+00  0.00000000E+00
  0.00000000E+00  0.00000000E+00  0.00000000E+00
  0.00000000E+00  0.00000000E+00  0.00000000E+00
  0.00000000E+00  0.00000000E+00  0.00000000E+00
  0.00000000E+00  0.00000000E+00  0.00000000E+00
  0.00000000E+00  0.00000000E+00  0.00000000E+00
  0.00000000E+00  0.00000000E+00  0.00000000E+00
  0.00000000E+00  0.00000000E+00  0.00000000E+00
  0.00000000E+00  0.00000000E+00  0.00000000E+00
  0.00000000E+00  0.00000000E+00  0.00000000E+00
  0.00000000E+00  0.00000000E+00  0.00000000E+00
  0.00000000E+00  0.00000000E+00  0.00000000E+00
  0.00000000E+00  0.00000000E+00  0.00000000E+00
  0.00000000E+00  0.00000000E+00  0.00000000E+00
  0.00000000E+00  0.00000000E+00  0.00000000E+00
  0.00000000E+00  0.00000000E+00  0.00000000E+00
  0.00000000E+00  0.00000000E+00  0.00000000E+00
  0.00000000E+00  0.00000000E+00  0.00000000E+00
  0.00000000E+00  0.00000000E+00  0.00000000E+00
  0.00000000E+00  0.00000000E+00  0.00000000E+00
  0.00000000E+00  0.00000000E+00  0.00000000E+00
  0.00000000E+00  0.00000000E+00  0.00000000E+00
  0.00000000E+00  0.00000000E+00  0.00000000E+00
  0.00000000E+00  0.00000000E+00  0.00000000E+00
  0.00000000E+00  0.00000000E+00  0.00000000E+00
  0.00000000E+00  0.00000000E+00  0.00000000E+00
  0.00000000E+00  0.00000000E+00  0.00000000E+00
  0.00000000E+00  0.00000000E+00  0.00000000E+00
  0.00000000E+00  0.00000000E+00  0.00000000E+00
  0.00000000E+00  0.00000000E+00  0.00000000E+00
  0.00000000E+00  0.00000000E+00  0.00000000E+00
  0.00000000E+00  0.00000000E+00  0.00000000E+00
  0.00000000E+00  0.00000000E+00  0.00000000E+00
  0.00000000E+00  0.00000000E+00  0.00000000E+00
  0.00000000E+00  0.00000000E+00  0.00000000E+00
  0.00000000E+00  0.00000000E+00  0.00000000E+00
  0.00000000E+00  0.00000000E+00  0.00000000E+00
  0.00000000E+00  0.00000000E+00  0.00000000E+00
  0.00000000E+00  0.00000000E+00  0.00000000E+00
  0.00000000E+00  0.00000000E+00  0.00000000E+00
  0.00000000E+00  0.00000000E+00  0.00000000E+00
  0.00000000E+00  0.00000000E+00  0.00000000E+00
  0.00000000E+00  0.00000000E+00  0.00000000E+00
  0.00000000E+00  0.00000000E+00  0.00000000E+00
  0.00000000E+00  0.00000000E+00  0.00000000E+00
  0.00000000E+00  0.00000000E+00  0.00000000E+00
  0.00000000E+00  0.00000000E+00  0.00000000E+00
  0.00000000E+00  0.00000000E+00  0.00000000E+00
  0.00000000E+00  0.00000000E+00  0.00000000E+00
  0.00000000E+00  0.00000000E+00  0.00000000E+00
  0.00000000E+00  0.00000000E+00  0.00000000E+00
  0.00000000E+00  0.00000000E+00  0.00000000E+00
  0.00000000E+00  0.00000000E+00  0.00000000E+00
  0.00000000E+00  0.00000000E+00  0.00000000E+00
  0.00000000E+00  0.00000000E+00  0.00000000E+00
  0.00000000E+00  0.00000000E+00  0.00000000E+00
  0.00000000E+00  0.00000000E+00  0.00000000E+00
  0.00000000E+00  0.00000000E+00  0.00000000E+00
  0.00000000E+00  0.00000000E+00  0.00000000E+00
  0.00000000E+00  0.00000000E+00  0.00000000E+00
  0.00000000E+00  0.00000000E+00  0.00000000E+00
  0.00000000E+00  0.00000000E+00  0.00000000E+00
  0.00000000E+00  0.00000000E+00  0.00000000E+00
  0.00000000E+00  0.00000000E+00  0.00000000E+00
  0.00000000E+00  0.00000000E+00  0.00000000E+00
  0.00000000E+00  0.00000000E+00  0.00000000E+00
  0.00000000E+00  0.00000000E+00  0.00000000E+00
  0.00000000E+00  0.00000000E+00  0.00000000E+00
  0.00000000E+00  0.00000000E+00  0.00000000E+00
  0.00000000E+00  0.00000000E+00  0.00000000E+00
  0.00000000E+00  0.00000000E+00  0.00000000E+00
  0.00000000E+00  0.00000000E+00  0.00000000E+00
  0.00000000E+00  0.00000000E+00  0.00000000E+00
  0.00000000E+00  0.00000000E+00  0.00000000E+00
  0.00000000E+00  0.00000000E+00  0.00000000E+00
  0.00000000E+00  0.00000000E+00  0.00000000E+00
  0.00000000E+00  0.00000000E+00  0.00000000E+00
